hw2/hw2_3.out
x [*,*] (tr)
:    i1    i2    i3    i4    :=
j1     0    81   166    0
j2   259   135     0    0
j3   166     0     0   99
j4     0     0   105    0
j5    90     0     0    0
j6     0    85     0    0
j7   145     0     0    0
;

dist_total = 17592

